c Instancia generada aleatoriamente
p edge 30 53
e 1 3
e 1 10
e 1 19
e 1 26
e 1 27
e 2 3
e 2 6
e 2 7
e 2 22
e 2 27
e 2 29
e 3 9
e 4 10
e 5 8
e 5 9
e 5 17
e 5 26
e 6 7
e 6 11
e 6 15
e 6 25
e 7 10
e 7 13
e 7 18
e 7 28
e 8 24
e 8 25
e 9 13
e 10 14
e 10 28
e 11 12
e 11 13
e 12 19
e 12 20
e 13 25
e 13 26
e 13 29
e 14 17
e 14 21
e 14 27
e 14 28
e 16 22
e 16 30
e 17 29
e 18 24
e 19 30
e 20 23
e 20 27
e 22 26
e 22 28
e 24 26
e 25 30
e 26 30
